p cnf 278 1013
a 1 2 3 4 5 6 7 8 9 10 11 12 13 15 16 17 18 19 20 21 22 23 24 25 26 27 28 29 30 31 32 33 34 35 36 37 38 39 40 42 43 44 45 46 47 48 49 50 52 53 54 55 57 58 59 60 61 62 0
e 14 41 51 56 63 64 65 66 67 68 69 70 71 72 73 74 75 76 77 78 79 80 81 82 83 84 85 86 87 88 89 90 91 92 93 94 95 96 97 98 99 100 101 102 103 104 105 106 107 108 109 110 111 112 113 114 115 116 117 118 119 120 121 122 123 124 125 126 127 128 129 130 131 132 133 134 135 136 137 138 139 140 141 142 143 144 145 146 147 148 149 150 151 152 153 154 155 156 157 158 159 160 161 162 163 164 165 166 167 168 169 170 171 172 173 174 175 176 177 178 179 180 181 182 183 184 185 186 187 188 189 190 191 192 193 194 195 196 197 198 199 200 201 202 203 204 205 206 207 208 209 210 211 212 213 214 215 216 217 218 219 220 221 222 223 224 225 226 227 228 229 230 231 232 233 234 235 236 237 238 239 240 241 242 243 244 245 246 247 248 249 250 251 252 253 254 255 256 257 258 259 260 261 262 263 264 265 266 267 268 269 270 271 272 273 274 275 276 277 278 0
-278 0
278 -235 0
278 -258 0
278 -271 0
278 -277 0
35 37 62 -229 -228 -270 -257 -276 277 0
276 -275 0
276 -95 0
276 -96 0
276 -97 0
276 -98 0
-274 -273 -272 275 0
274 -73 0
274 -74 0
274 -91 0
274 -92 0
274 -50 0
274 -46 0
274 -32 0
274 -31 0
274 -30 0
274 -29 0
274 -26 0
273 -68 0
273 -69 0
273 -86 0
273 -87 0
273 -49 0
273 -43 0
273 -23 0
273 -22 0
273 -21 0
273 -20 0
273 -17 0
272 -63 0
272 -64 0
272 -81 0
272 -82 0
272 -48 0
272 -39 0
272 -13 0
272 -12 0
272 -11 0
272 -10 0
272 -7 0
35 36 62 -229 -270 -210 -249 -263 271 0
270 -266 0
270 -269 0
-199 -268 -198 -197 -267 269 0
268 -245 0
268 -146 0
268 -95 0
268 -96 0
268 -97 0
268 -98 0
267 -195 0
267 -94 0
267 -95 0
267 -96 0
267 -97 0
267 -98 0
-220 -219 -218 -265 -264 266 0
265 -253 0
265 -119 0
265 -95 0
265 -96 0
265 -97 0
265 -98 0
264 -214 0
264 -124 0
264 -95 0
264 -96 0
264 -97 0
264 -98 0
263 -262 0
263 -95 0
263 -96 0
263 -97 0
263 -98 0
-261 -260 -259 262 0
261 -133 0
261 -75 0
261 -134 0
261 -76 0
261 -50 0
261 -46 0
261 -32 0
261 -31 0
261 -30 0
261 -29 0
261 -26 0
260 -130 0
260 -70 0
260 -131 0
260 -71 0
260 -49 0
260 -43 0
260 -23 0
260 -22 0
260 -21 0
260 -20 0
260 -17 0
259 -127 0
259 -65 0
259 -128 0
259 -66 0
259 -48 0
259 -39 0
259 -13 0
259 -12 0
259 -11 0
259 -10 0
259 -7 0
37 36 62 -229 -257 -249 -191 -240 258 0
257 -252 0
257 -256 0
-213 -212 -211 -255 -254 256 0
255 -221 0
255 -168 0
255 -95 0
255 -96 0
255 -97 0
255 -98 0
254 -253 0
254 -173 0
254 -95 0
254 -96 0
254 -97 0
254 -98 0
-223 -217 -216 253 0
-148 -147 -142 -251 -250 252 0
251 -126 0
251 -141 0
251 -95 0
251 -96 0
251 -97 0
251 -98 0
250 -241 0
250 -146 0
250 -95 0
250 -96 0
250 -97 0
250 -98 0
249 -244 0
249 -248 0
-194 -193 -192 -247 -246 248 0
247 -200 0
247 -181 0
247 -95 0
247 -96 0
247 -97 0
247 -98 0
246 -245 0
246 -173 0
246 -95 0
246 -96 0
246 -97 0
246 -98 0
-204 -203 -202 245 0
-125 -120 -99 -243 -242 244 0
243 -149 0
243 -78 0
243 -95 0
243 -96 0
243 -97 0
243 -98 0
242 -241 0
242 -119 0
242 -95 0
242 -96 0
242 -97 0
242 -98 0
-157 -156 -155 241 0
240 -239 0
240 -95 0
240 -96 0
240 -97 0
240 -98 0
-238 -237 -236 239 0
238 -165 0
238 -166 0
238 -89 0
238 -90 0
238 -61 0
238 -58 0
238 -50 0
238 -46 0
238 -32 0
238 -31 0
238 -26 0
237 -162 0
237 -163 0
237 -84 0
237 -85 0
237 -60 0
237 -57 0
237 -49 0
237 -43 0
237 -23 0
237 -22 0
237 -17 0
236 -159 0
236 -160 0
236 -79 0
236 -80 0
236 -59 0
236 -55 0
236 -48 0
236 -39 0
236 -13 0
236 -12 0
236 -7 0
35 37 36 -234 -229 -228 -210 -191 235 0
234 -233 0
234 -95 0
234 -96 0
234 -97 0
234 -98 0
-232 -231 -230 233 0
232 -110 0
232 -111 0
232 -100 0
232 -101 0
232 -13 0
232 -12 0
232 -11 0
232 -10 0
232 -9 0
232 -8 0
232 -7 0
231 -113 0
231 -114 0
231 -103 0
231 -104 0
231 -23 0
231 -22 0
231 -21 0
231 -20 0
231 -19 0
231 -18 0
231 -17 0
230 -116 0
230 -117 0
230 -106 0
230 -107 0
230 -32 0
230 -31 0
230 -30 0
230 -29 0
230 -28 0
230 -27 0
230 -26 0
229 -62 0
229 -37 0
229 -36 0
229 -35 0
228 -224 0
228 -227 0
-184 -183 -182 -226 -225 227 0
226 -176 0
226 -141 0
226 -95 0
226 -96 0
226 -97 0
226 -98 0
225 -206 0
225 -94 0
225 -95 0
225 -96 0
225 -97 0
225 -98 0
-223 -222 -217 -216 -215 224 0
223 -153 0
223 -95 0
223 -96 0
223 -97 0
223 -98 0
222 -136 0
222 -221 0
222 -95 0
222 -96 0
222 -97 0
222 -98 0
-220 -219 -218 221 0
220 -78 0
220 -95 0
220 -96 0
220 -97 0
220 -98 0
219 -153 0
219 -119 0
219 -95 0
219 -96 0
219 -97 0
219 -98 0
218 -181 0
218 -124 0
218 -95 0
218 -96 0
218 -97 0
218 -98 0
217 -136 0
217 -78 0
217 -95 0
217 -96 0
217 -97 0
217 -98 0
216 -109 0
216 -181 0
216 -95 0
216 -96 0
216 -97 0
216 -98 0
215 -214 0
215 -109 0
215 -95 0
215 -96 0
215 -97 0
215 -98 0
-213 -212 -211 214 0
213 -181 0
213 -95 0
213 -96 0
213 -97 0
213 -98 0
212 -168 0
212 -78 0
212 -95 0
212 -96 0
212 -97 0
212 -98 0
211 -153 0
211 -173 0
211 -95 0
211 -96 0
211 -97 0
211 -98 0
210 -205 0
210 -209 0
-175 -174 -169 -208 -207 209 0
208 -78 0
208 -185 0
208 -95 0
208 -96 0
208 -97 0
208 -98 0
207 -206 0
207 -124 0
207 -95 0
207 -96 0
207 -97 0
207 -98 0
-189 -188 -187 206 0
-204 -203 -202 -201 -196 205 0
204 -136 0
204 -95 0
204 -96 0
204 -97 0
204 -98 0
203 -153 0
203 -141 0
203 -95 0
203 -96 0
203 -97 0
203 -98 0
202 -109 0
202 -168 0
202 -95 0
202 -96 0
202 -97 0
202 -98 0
201 -200 0
201 -153 0
201 -95 0
201 -96 0
201 -97 0
201 -98 0
-199 -198 -197 200 0
199 -141 0
199 -95 0
199 -96 0
199 -97 0
199 -98 0
198 -136 0
198 -146 0
198 -95 0
198 -96 0
198 -97 0
198 -98 0
197 -168 0
197 -94 0
197 -95 0
197 -96 0
197 -97 0
197 -98 0
196 -195 0
196 -109 0
196 -95 0
196 -96 0
196 -97 0
196 -98 0
-194 -193 -192 195 0
194 -168 0
194 -95 0
194 -96 0
194 -97 0
194 -98 0
193 -181 0
193 -141 0
193 -95 0
193 -96 0
193 -97 0
193 -98 0
192 -136 0
192 -173 0
192 -95 0
192 -96 0
192 -97 0
192 -98 0
191 -158 0
191 -190 0
-189 -188 -187 -186 -177 190 0
189 -173 0
189 -95 0
189 -96 0
189 -97 0
189 -98 0
188 -168 0
188 -119 0
188 -95 0
188 -96 0
188 -97 0
188 -98 0
187 -181 0
187 -146 0
187 -95 0
187 -96 0
187 -97 0
187 -98 0
186 -181 0
186 -185 0
186 -95 0
186 -96 0
186 -97 0
186 -98 0
-184 -183 -182 185 0
184 -146 0
184 -95 0
184 -96 0
184 -97 0
184 -98 0
183 -141 0
183 -119 0
183 -95 0
183 -96 0
183 -97 0
183 -98 0
182 -94 0
182 -173 0
182 -95 0
182 -96 0
182 -97 0
182 -98 0
-180 -179 -178 181 0
180 -73 0
180 -74 0
180 -165 0
180 -166 0
180 -61 0
180 -54 0
180 -50 0
180 -46 0
180 -45 0
180 -31 0
180 -30 0
179 -68 0
179 -69 0
179 -162 0
179 -163 0
179 -60 0
179 -53 0
179 -49 0
179 -43 0
179 -42 0
179 -22 0
179 -21 0
178 -63 0
178 -64 0
178 -159 0
178 -160 0
178 -59 0
178 -52 0
178 -48 0
178 -39 0
178 -38 0
178 -12 0
178 -11 0
177 -168 0
177 -176 0
177 -95 0
177 -96 0
177 -97 0
177 -98 0
-175 -174 -169 176 0
175 -119 0
175 -95 0
175 -96 0
175 -97 0
175 -98 0
174 -124 0
174 -173 0
174 -95 0
174 -96 0
174 -97 0
174 -98 0
-172 -171 -170 173 0
172 -116 0
172 -117 0
172 -165 0
172 -166 0
172 -61 0
172 -50 0
172 -45 0
172 -32 0
172 -31 0
172 -30 0
172 -28 0
171 -113 0
171 -114 0
171 -162 0
171 -163 0
171 -60 0
171 -49 0
171 -42 0
171 -23 0
171 -22 0
171 -21 0
171 -19 0
170 -110 0
170 -111 0
170 -159 0
170 -160 0
170 -59 0
170 -48 0
170 -38 0
170 -13 0
170 -12 0
170 -11 0
170 -9 0
169 -78 0
169 -146 0
169 -95 0
169 -96 0
169 -97 0
169 -98 0
-167 -164 -161 168 0
167 -133 0
167 -134 0
167 -165 0
167 -166 0
167 -61 0
167 -50 0
167 -46 0
167 -45 0
167 -32 0
167 -31 0
167 -30 0
-3 56 166 0
-6 -56 165 0
164 -130 0
164 -131 0
164 -162 0
164 -163 0
164 -60 0
164 -49 0
164 -43 0
164 -42 0
164 -23 0
164 -22 0
164 -21 0
-2 56 163 0
-4 -56 162 0
161 -127 0
161 -128 0
161 -159 0
161 -160 0
161 -59 0
161 -48 0
161 -39 0
161 -38 0
161 -13 0
161 -12 0
161 -11 0
-1 56 160 0
-5 -56 159 0
-157 -156 -155 -154 -137 158 0
157 -109 0
157 -95 0
157 -96 0
157 -97 0
157 -98 0
156 -136 0
156 -124 0
156 -95 0
156 -96 0
156 -97 0
156 -98 0
155 -153 0
155 -94 0
155 -95 0
155 -96 0
155 -97 0
155 -98 0
154 -149 0
154 -153 0
154 -95 0
154 -96 0
154 -97 0
154 -98 0
-152 -151 -150 153 0
152 -73 0
152 -74 0
152 -106 0
152 -107 0
152 -46 0
152 -45 0
152 -32 0
152 -31 0
152 -30 0
152 -29 0
152 -27 0
151 -68 0
151 -69 0
151 -103 0
151 -104 0
151 -43 0
151 -42 0
151 -23 0
151 -22 0
151 -21 0
151 -20 0
151 -18 0
150 -63 0
150 -64 0
150 -100 0
150 -101 0
150 -39 0
150 -38 0
150 -13 0
150 -12 0
150 -11 0
150 -10 0
150 -8 0
-148 -147 -142 149 0
148 -94 0
148 -95 0
148 -96 0
148 -97 0
148 -98 0
147 -109 0
147 -146 0
147 -95 0
147 -96 0
147 -97 0
147 -98 0
-145 -144 -143 146 0
145 -116 0
145 -117 0
145 -91 0
145 -92 0
145 -50 0
145 -45 0
145 -32 0
145 -31 0
145 -30 0
145 -29 0
145 -28 0
144 -113 0
144 -114 0
144 -86 0
144 -87 0
144 -49 0
144 -42 0
144 -23 0
144 -22 0
144 -21 0
144 -20 0
144 -19 0
143 -110 0
143 -111 0
143 -81 0
143 -82 0
143 -48 0
143 -38 0
143 -13 0
143 -12 0
143 -11 0
143 -10 0
143 -9 0
142 -124 0
142 -141 0
142 -95 0
142 -96 0
142 -97 0
142 -98 0
-140 -139 -138 141 0
140 -133 0
140 -134 0
140 -91 0
140 -92 0
140 -54 0
140 -50 0
140 -46 0
140 -45 0
140 -31 0
140 -30 0
140 -29 0
139 -130 0
139 -131 0
139 -86 0
139 -87 0
139 -53 0
139 -49 0
139 -43 0
139 -42 0
139 -22 0
139 -21 0
139 -20 0
138 -127 0
138 -128 0
138 -81 0
138 -82 0
138 -52 0
138 -48 0
138 -39 0
138 -38 0
138 -12 0
138 -11 0
138 -10 0
137 -126 0
137 -136 0
137 -95 0
137 -96 0
137 -97 0
137 -98 0
-135 -132 -129 136 0
135 -133 0
135 -134 0
135 -106 0
135 -107 0
135 -47 0
135 -46 0
135 -45 0
135 -32 0
135 -30 0
135 -29 0
135 -27 0
-33 41 134 0
-34 -41 133 0
132 -130 0
132 -131 0
132 -103 0
132 -104 0
132 -44 0
132 -43 0
132 -42 0
132 -23 0
132 -21 0
132 -20 0
132 -18 0
-24 41 131 0
-25 -41 130 0
129 -127 0
129 -128 0
129 -100 0
129 -101 0
129 -40 0
129 -39 0
129 -38 0
129 -13 0
129 -11 0
129 -10 0
129 -8 0
-15 41 128 0
-16 -41 127 0
-125 -120 -99 126 0
125 -124 0
125 -95 0
125 -96 0
125 -97 0
125 -98 0
-123 -122 -121 124 0
123 -75 0
123 -76 0
123 -89 0
123 -90 0
123 -58 0
123 -50 0
123 -46 0
123 -45 0
123 -32 0
123 -31 0
123 -29 0
122 -70 0
122 -71 0
122 -84 0
122 -85 0
122 -57 0
122 -49 0
122 -43 0
122 -42 0
122 -23 0
122 -22 0
122 -20 0
121 -65 0
121 -66 0
121 -79 0
121 -80 0
121 -55 0
121 -48 0
121 -39 0
121 -38 0
121 -13 0
121 -12 0
121 -10 0
120 -109 0
120 -119 0
120 -95 0
120 -96 0
120 -97 0
120 -98 0
-118 -115 -112 119 0
118 -75 0
118 -76 0
118 -116 0
118 -117 0
118 -54 0
118 -50 0
118 -45 0
118 -31 0
118 -30 0
118 -29 0
118 -28 0
-33 14 117 0
-14 -34 116 0
115 -70 0
115 -71 0
115 -113 0
115 -114 0
115 -53 0
115 -49 0
115 -42 0
115 -22 0
115 -21 0
115 -20 0
115 -19 0
-24 14 114 0
-14 -25 113 0
112 -65 0
112 -66 0
112 -110 0
112 -111 0
112 -52 0
112 -48 0
112 -38 0
112 -12 0
112 -11 0
112 -10 0
112 -9 0
-15 14 111 0
-14 -16 110 0
-108 -105 -102 109 0
108 -89 0
108 -106 0
108 -107 0
108 -90 0
108 -58 0
108 -46 0
108 -45 0
108 -32 0
108 -31 0
108 -29 0
108 -27 0
-3 14 107 0
-6 -14 106 0
105 -84 0
105 -103 0
105 -104 0
105 -85 0
105 -57 0
105 -43 0
105 -42 0
105 -23 0
105 -22 0
105 -20 0
105 -18 0
-2 14 104 0
-4 -14 103 0
102 -79 0
102 -80 0
102 -100 0
102 -101 0
102 -55 0
102 -39 0
102 -38 0
102 -13 0
102 -12 0
102 -10 0
102 -8 0
-1 14 101 0
-5 -14 100 0
99 -78 0
99 -94 0
99 -95 0
99 -96 0
99 -97 0
99 -98 0
-5 4 98 0
-4 6 97 0
-3 2 96 0
-2 1 95 0
-93 -88 -83 94 0
93 -89 0
93 -90 0
93 -91 0
93 -92 0
93 -58 0
93 -50 0
93 -47 0
93 -46 0
93 -45 0
93 -32 0
93 -29 0
-6 -51 92 0
-3 51 91 0
-33 56 90 0
-34 -56 89 0
88 -84 0
88 -85 0
88 -86 0
88 -87 0
88 -57 0
88 -49 0
88 -44 0
88 -43 0
88 -42 0
88 -23 0
88 -20 0
-4 -51 87 0
-2 51 86 0
-25 -56 85 0
-24 56 84 0
83 -79 0
83 -80 0
83 -81 0
83 -82 0
83 -55 0
83 -48 0
83 -40 0
83 -39 0
83 -38 0
83 -13 0
83 -10 0
-5 -51 82 0
-1 51 81 0
-15 56 80 0
-16 -56 79 0
-77 -72 -67 78 0
77 -73 0
77 -74 0
77 -75 0
77 -76 0
77 -50 0
77 -47 0
77 -46 0
77 -45 0
77 -32 0
77 -30 0
77 -29 0
-3 41 76 0
-6 -41 75 0
-33 51 74 0
-34 -51 73 0
72 -68 0
72 -69 0
72 -70 0
72 -71 0
72 -49 0
72 -44 0
72 -43 0
72 -42 0
72 -23 0
72 -21 0
72 -20 0
-2 41 71 0
-4 -41 70 0
-24 51 69 0
-25 -51 68 0
67 -63 0
67 -64 0
67 -65 0
67 -66 0
67 -48 0
67 -40 0
67 -39 0
67 -38 0
67 -13 0
67 -11 0
67 -10 0
-1 41 66 0
-5 -41 65 0
-15 51 64 0
-16 -51 63 0
